p cnf 20 9
a 1 0
e 2 0
a 3 4 5 6 7 8 0
e 9 10 0
a 11 0
e 12 13 0
a 14 0
e 15 16 17 0
a 18 0
e 19 20 0
-10 -19 -11 1 -15 0
-14 2 17 4 -9 0
-7 -4 16 0
-19 -18 5 2 -8 0
-8 -2 -6 -11 0
-9 8 -18 1 0
-10 18 -4 -7 0
-10 -9 14 17 0
-12 19 -20 18 -5 0
